predicate fzn_all_different_int(array [int] of var int: x);
var 1..16: X_INTRODUCED_0_;
var 1..16: X_INTRODUCED_1_;
var 1..16: X_INTRODUCED_2_;
var 1..16: X_INTRODUCED_3_;
var 1..16: X_INTRODUCED_4_;
var 1..16: X_INTRODUCED_5_;
var 1..16: X_INTRODUCED_6_;
var 1..16: X_INTRODUCED_7_;
var 1..16: X_INTRODUCED_8_;
var 1..16: X_INTRODUCED_9_;
var 1..16: X_INTRODUCED_10_;
var 1..16: X_INTRODUCED_11_;
var 1..16: X_INTRODUCED_12_;
var 1..16: X_INTRODUCED_13_;
var 1..16: X_INTRODUCED_14_;
var 1..16: X_INTRODUCED_15_;
var 2..17: X_INTRODUCED_17_ ::var_is_introduced :: is_defined_var;
var 3..18: X_INTRODUCED_18_ ::var_is_introduced :: is_defined_var;
var 4..19: X_INTRODUCED_19_ ::var_is_introduced :: is_defined_var;
var 5..20: X_INTRODUCED_20_ ::var_is_introduced :: is_defined_var;
var 6..21: X_INTRODUCED_21_ ::var_is_introduced :: is_defined_var;
var 7..22: X_INTRODUCED_22_ ::var_is_introduced :: is_defined_var;
var 8..23: X_INTRODUCED_23_ ::var_is_introduced :: is_defined_var;
var 9..24: X_INTRODUCED_24_ ::var_is_introduced :: is_defined_var;
var 10..25: X_INTRODUCED_25_ ::var_is_introduced :: is_defined_var;
var 11..26: X_INTRODUCED_26_ ::var_is_introduced :: is_defined_var;
var 12..27: X_INTRODUCED_27_ ::var_is_introduced :: is_defined_var;
var 13..28: X_INTRODUCED_28_ ::var_is_introduced :: is_defined_var;
var 14..29: X_INTRODUCED_29_ ::var_is_introduced :: is_defined_var;
var 15..30: X_INTRODUCED_30_ ::var_is_introduced :: is_defined_var;
var 16..31: X_INTRODUCED_31_ ::var_is_introduced :: is_defined_var;
var 17..32: X_INTRODUCED_32_ ::var_is_introduced :: is_defined_var;
var 0..15: X_INTRODUCED_34_ ::var_is_introduced :: is_defined_var;
var -1..14: X_INTRODUCED_35_ ::var_is_introduced :: is_defined_var;
var -2..13: X_INTRODUCED_36_ ::var_is_introduced :: is_defined_var;
var -3..12: X_INTRODUCED_37_ ::var_is_introduced :: is_defined_var;
var -4..11: X_INTRODUCED_38_ ::var_is_introduced :: is_defined_var;
var -5..10: X_INTRODUCED_39_ ::var_is_introduced :: is_defined_var;
var -6..9: X_INTRODUCED_40_ ::var_is_introduced :: is_defined_var;
var -7..8: X_INTRODUCED_41_ ::var_is_introduced :: is_defined_var;
var -8..7: X_INTRODUCED_42_ ::var_is_introduced :: is_defined_var;
var -9..6: X_INTRODUCED_43_ ::var_is_introduced :: is_defined_var;
var -10..5: X_INTRODUCED_44_ ::var_is_introduced :: is_defined_var;
var -11..4: X_INTRODUCED_45_ ::var_is_introduced :: is_defined_var;
var -12..3: X_INTRODUCED_46_ ::var_is_introduced :: is_defined_var;
var -13..2: X_INTRODUCED_47_ ::var_is_introduced :: is_defined_var;
var -14..1: X_INTRODUCED_48_ ::var_is_introduced :: is_defined_var;
var -15..0: X_INTRODUCED_49_ ::var_is_introduced :: is_defined_var;
array [1..16] of var int: q:: output_array([1..16]) = [X_INTRODUCED_0_,X_INTRODUCED_1_,X_INTRODUCED_2_,X_INTRODUCED_3_,X_INTRODUCED_4_,X_INTRODUCED_5_,X_INTRODUCED_6_,X_INTRODUCED_7_,X_INTRODUCED_8_,X_INTRODUCED_9_,X_INTRODUCED_10_,X_INTRODUCED_11_,X_INTRODUCED_12_,X_INTRODUCED_13_,X_INTRODUCED_14_,X_INTRODUCED_15_];
array [1..16] of var int: X_INTRODUCED_33_ ::var_is_introduced  = [X_INTRODUCED_17_,X_INTRODUCED_18_,X_INTRODUCED_19_,X_INTRODUCED_20_,X_INTRODUCED_21_,X_INTRODUCED_22_,X_INTRODUCED_23_,X_INTRODUCED_24_,X_INTRODUCED_25_,X_INTRODUCED_26_,X_INTRODUCED_27_,X_INTRODUCED_28_,X_INTRODUCED_29_,X_INTRODUCED_30_,X_INTRODUCED_31_,X_INTRODUCED_32_];
array [1..16] of var int: X_INTRODUCED_50_ ::var_is_introduced  = [X_INTRODUCED_34_,X_INTRODUCED_35_,X_INTRODUCED_36_,X_INTRODUCED_37_,X_INTRODUCED_38_,X_INTRODUCED_39_,X_INTRODUCED_40_,X_INTRODUCED_41_,X_INTRODUCED_42_,X_INTRODUCED_43_,X_INTRODUCED_44_,X_INTRODUCED_45_,X_INTRODUCED_46_,X_INTRODUCED_47_,X_INTRODUCED_48_,X_INTRODUCED_49_];
constraint fzn_all_different_int(q);
constraint fzn_all_different_int(X_INTRODUCED_33_);
constraint fzn_all_different_int(X_INTRODUCED_50_);
constraint int_lin_eq([1,-1],[X_INTRODUCED_0_,X_INTRODUCED_17_],-1):: defines_var(X_INTRODUCED_17_);
constraint int_lin_eq([1,-1],[X_INTRODUCED_1_,X_INTRODUCED_18_],-2):: defines_var(X_INTRODUCED_18_);
constraint int_lin_eq([1,-1],[X_INTRODUCED_2_,X_INTRODUCED_19_],-3):: defines_var(X_INTRODUCED_19_);
constraint int_lin_eq([1,-1],[X_INTRODUCED_3_,X_INTRODUCED_20_],-4):: defines_var(X_INTRODUCED_20_);
constraint int_lin_eq([1,-1],[X_INTRODUCED_4_,X_INTRODUCED_21_],-5):: defines_var(X_INTRODUCED_21_);
constraint int_lin_eq([1,-1],[X_INTRODUCED_5_,X_INTRODUCED_22_],-6):: defines_var(X_INTRODUCED_22_);
constraint int_lin_eq([1,-1],[X_INTRODUCED_6_,X_INTRODUCED_23_],-7):: defines_var(X_INTRODUCED_23_);
constraint int_lin_eq([1,-1],[X_INTRODUCED_7_,X_INTRODUCED_24_],-8):: defines_var(X_INTRODUCED_24_);
constraint int_lin_eq([1,-1],[X_INTRODUCED_8_,X_INTRODUCED_25_],-9):: defines_var(X_INTRODUCED_25_);
constraint int_lin_eq([1,-1],[X_INTRODUCED_9_,X_INTRODUCED_26_],-10):: defines_var(X_INTRODUCED_26_);
constraint int_lin_eq([1,-1],[X_INTRODUCED_10_,X_INTRODUCED_27_],-11):: defines_var(X_INTRODUCED_27_);
constraint int_lin_eq([1,-1],[X_INTRODUCED_11_,X_INTRODUCED_28_],-12):: defines_var(X_INTRODUCED_28_);
constraint int_lin_eq([1,-1],[X_INTRODUCED_12_,X_INTRODUCED_29_],-13):: defines_var(X_INTRODUCED_29_);
constraint int_lin_eq([1,-1],[X_INTRODUCED_13_,X_INTRODUCED_30_],-14):: defines_var(X_INTRODUCED_30_);
constraint int_lin_eq([1,-1],[X_INTRODUCED_14_,X_INTRODUCED_31_],-15):: defines_var(X_INTRODUCED_31_);
constraint int_lin_eq([1,-1],[X_INTRODUCED_15_,X_INTRODUCED_32_],-16):: defines_var(X_INTRODUCED_32_);
constraint int_lin_eq([1,-1],[X_INTRODUCED_0_,X_INTRODUCED_34_],1):: defines_var(X_INTRODUCED_34_);
constraint int_lin_eq([1,-1],[X_INTRODUCED_1_,X_INTRODUCED_35_],2):: defines_var(X_INTRODUCED_35_);
constraint int_lin_eq([1,-1],[X_INTRODUCED_2_,X_INTRODUCED_36_],3):: defines_var(X_INTRODUCED_36_);
constraint int_lin_eq([1,-1],[X_INTRODUCED_3_,X_INTRODUCED_37_],4):: defines_var(X_INTRODUCED_37_);
constraint int_lin_eq([1,-1],[X_INTRODUCED_4_,X_INTRODUCED_38_],5):: defines_var(X_INTRODUCED_38_);
constraint int_lin_eq([1,-1],[X_INTRODUCED_5_,X_INTRODUCED_39_],6):: defines_var(X_INTRODUCED_39_);
constraint int_lin_eq([1,-1],[X_INTRODUCED_6_,X_INTRODUCED_40_],7):: defines_var(X_INTRODUCED_40_);
constraint int_lin_eq([1,-1],[X_INTRODUCED_7_,X_INTRODUCED_41_],8):: defines_var(X_INTRODUCED_41_);
constraint int_lin_eq([1,-1],[X_INTRODUCED_8_,X_INTRODUCED_42_],9):: defines_var(X_INTRODUCED_42_);
constraint int_lin_eq([1,-1],[X_INTRODUCED_9_,X_INTRODUCED_43_],10):: defines_var(X_INTRODUCED_43_);
constraint int_lin_eq([1,-1],[X_INTRODUCED_10_,X_INTRODUCED_44_],11):: defines_var(X_INTRODUCED_44_);
constraint int_lin_eq([1,-1],[X_INTRODUCED_11_,X_INTRODUCED_45_],12):: defines_var(X_INTRODUCED_45_);
constraint int_lin_eq([1,-1],[X_INTRODUCED_12_,X_INTRODUCED_46_],13):: defines_var(X_INTRODUCED_46_);
constraint int_lin_eq([1,-1],[X_INTRODUCED_13_,X_INTRODUCED_47_],14):: defines_var(X_INTRODUCED_47_);
constraint int_lin_eq([1,-1],[X_INTRODUCED_14_,X_INTRODUCED_48_],15):: defines_var(X_INTRODUCED_48_);
constraint int_lin_eq([1,-1],[X_INTRODUCED_15_,X_INTRODUCED_49_],16):: defines_var(X_INTRODUCED_49_);
solve  satisfy;
